; benchmark generated from python API
(set-info :status unknown)
(declare-datatypes ((IntState 0)) (((Mk1 (val1 Int)) (Mk2 (val2 Int)))))
 (declare-fun c_main_~i~6 () Int)
(declare-fun c_main_~j~6 () Int)
(declare-fun c_main_~k~6 () Int)
(assert
 (let (($x40 (<= c_main_~j~6 (+ (* 2 c_main_~i~6) 1))))
 (let (($x146 (<= c_main_~j~6 (+ (* 2 c_main_~i~6) 2))))
 (let (($x54 (<= c_main_~i~6 3)))
 (let (($x106 (exists ((v_nnf_46_st IntState) (val!28 Int) )(let ((?x56 (val2 v_nnf_46_st)))
 (let (($x33 (<= ?x56 3)))
 (let (($x119 (and (<= (+ ?x56 2) c_main_~k~6) $x33 (<= c_main_~j~6 (+ (* 2 ?x56) 2)))))
 (let (($x52 (not (= v_nnf_46_st (Mk1 val!28)))))
 (and $x52 $x119))))))
 ))
 (let (($x101 (<= c_main_~i~6 2)))
 (let ((?x127 (* 2 c_main_~i~6)))
 (let (($x102 (<= c_main_~j~6 ?x127)))
 (let (($x107 (exists ((v_nnf_46 Int) )(let (($x51 (<= v_nnf_46 3)))
 (and (<= (+ v_nnf_46 2) c_main_~k~6) $x51 (<= c_main_~j~6 (+ (* 2 v_nnf_46) 2)))))
 ))
 (and (and $x101 $x107 $x102 $x54 $x146 $x40) (not (and $x101 $x106 $x54 $x146 $x40))))))))))))
(check-sat)
